
******************************************************************************
This program contains Ipopt, a library for large-scale nonlinear optimization.
 Ipopt is released as open source code under the Eclipse Public License (EPL).
         For more information visit http://projects.coin-or.org/Ipopt

This version of Ipopt was compiled from source code available at
    https://github.com/IDAES/Ipopt as part of the Institute for the Design of
    Advanced Energy Systems Process Systems Engineering Framework (IDAES PSE
    Framework) Copyright (c) 2018-2019. See https://github.com/IDAES/idaes-pse.

This version of Ipopt was compiled using HSL, a collection of Fortran codes
    for large-scale scientific computation.  All technical papers, sales and
    publicity material resulting from use of the HSL codes within IPOPT must
    contain the following acknowledgement:
        HSL, a collection of Fortran codes for large-scale scientific
        computation. See http://www.hsl.rl.ac.uk.
******************************************************************************

This is Ipopt version 3.13.2, running with linear solver ma27.

Number of nonzeros in equality constraint Jacobian...:     1172
Number of nonzeros in inequality constraint Jacobian.:        0
Number of nonzeros in Lagrangian Hessian.............:     1333

Total number of variables............................:      465
                     variables with only lower bounds:      124
                variables with lower and upper bounds:      279
                     variables with only upper bounds:        0
Total number of equality constraints.................:      462
Total number of inequality constraints...............:        0
        inequality constraints with only lower bounds:        0
   inequality constraints with lower and upper bounds:        0
        inequality constraints with only upper bounds:        0

iter    objective    inf_pr   inf_du lg(mu)  ||d||  lg(rg) alpha_du alpha_pr  ls
   0  0.0000000e+00 2.12e+00 4.44e-16  -1.0 0.00e+00    -  0.00e+00 0.00e+00   0
   1  7.0546517e+00 1.92e+00 8.70e+05  -1.0 5.40e+06    -  2.05e-02 4.58e-02h  3
   2  1.0374330e+01 1.90e+00 8.79e+05  -1.0 5.97e+06    -  1.89e-02 7.70e-03h  5
   3  8.0534497e+01 1.89e+00 2.59e+06  -1.0 7.39e+06    -  1.78e-02 6.87e-02h  2
   4  9.1120296e+01 1.90e+00 2.59e+06  -1.0 1.18e+07    -  2.33e-02 5.07e-03h  5
   5  1.0358101e+02 1.91e+00 2.58e+06  -1.0 1.29e+07    -  2.82e-02 5.31e-03h  5
   6  1.1873144e+02 1.92e+00 2.58e+06  -1.0 1.42e+07    -  2.84e-02 5.64e-03h  5
   7  1.2783392e+02 1.92e+00 2.58e+06  -1.0 1.57e+07    -  3.12e-02 2.97e-03h  6
   8  1.3054470e+02 1.92e+00 2.57e+06  -1.0 1.72e+07    -  4.96e-02 8.07e-04h  8
   9  1.3431751e+02 1.92e+00 2.57e+06  -1.0 1.91e+07    -  4.54e-02 1.02e-03h  7
iter    objective    inf_pr   inf_du lg(mu)  ||d||  lg(rg) alpha_du alpha_pr  ls
  10  1.6263504e+02 1.93e+00 2.59e+06  -1.0 2.03e+07    -  4.40e-02 6.80e-03h  4
  11  4.0751554e+02 2.07e+00 4.19e+06  -1.0 2.46e+07    -  6.07e-02 3.35e-02w  1
  12  4.1248265e+02 2.07e+00 4.19e+06  -1.0 3.90e+07    -  6.85e-02 3.62e-04h  1
  13  4.9377923e+02 2.07e+00 4.19e+06  -1.0 4.67e+07    -  5.77e-02 5.61e-03h  3
  14  4.9639425e+02 2.07e+00 4.19e+06  -1.0 6.04e+07    -  4.77e-02 1.25e-04h  6
  15  9.4042215e+02 2.13e+00 1.78e+08  -1.0 1.04e+08    -  1.90e-02 7.60e-03h  1
  16  1.4816033e+03 2.17e+00 1.79e+08  -1.0 9.02e+07    -  6.04e-02 1.02e-02h  3
  17  2.2089253e+03 2.21e+00 1.81e+08  -1.0 1.07e+08    -  9.09e-02 1.17e-02h  3
  18  3.8568284e+03 2.27e+00 1.78e+08  -1.0 1.47e+08    -  1.36e-01 1.59e-02h  3
  19  7.1900870e+03 2.33e+00 1.73e+08  -1.0 2.30e+08    -  3.99e-02 1.56e-02h  4
iter    objective    inf_pr   inf_du lg(mu)  ||d||  lg(rg) alpha_du alpha_pr  ls
  20  1.2825421e+04 2.38e+00 1.70e+08  -1.0 3.65e+08    -  9.36e-02 1.27e-02h  5
  21  2.6211707e+04 2.43e+00 2.57e+08  -1.0 5.58e+08    -  7.97e-03 1.47e-02h  5
  22  5.2261229e+04 2.47e+00 5.63e+08  -1.0 9.53e+08    -  1.09e-04 1.26e-02h  5
  23r 5.2261229e+04 2.47e+00 9.99e+02   0.4 0.00e+00  -4.0 0.00e+00 4.39e-07R  2
  24r 5.2261235e+04 2.41e+00 9.94e+02   0.4 6.59e+02    -  3.28e-02 4.61e-03f  1
  25r 5.2261261e+04 1.78e+00 9.77e+02   0.4 5.79e+02    -  1.50e-03 1.83e-02f  1
  26  1.0053764e+05 1.86e+00 2.46e+05  -1.0 4.59e+08    -  2.61e-04 2.81e-02h  3
  27  1.0693643e+05 1.86e+00 3.28e+05  -1.0 9.13e+08    -  2.07e-03 3.66e-03h  6
  28  1.0804487e+05 1.86e+00 3.31e+05  -1.0 1.24e+09    -  7.17e-03 4.15e-04h  9
  29r 1.0804487e+05 1.86e+00 9.99e+02   0.3 0.00e+00  -4.5 0.00e+00 2.55e-07R 16
iter    objective    inf_pr   inf_du lg(mu)  ||d||  lg(rg) alpha_du alpha_pr  ls
  30r 1.0804488e+05 1.74e+00 9.93e+02   0.3 1.80e+03    -  3.75e-03 5.69e-03f  1
  31r 1.0804488e+05 1.73e+00 9.89e+02   0.3 3.87e+00   2.0 4.12e-02 5.81e-03f  1
  32r 1.0804488e+05 1.37e+00 9.88e+02   0.3 2.80e+01   1.5 5.39e-03 3.11e-02f  1
  33  1.0731844e+05 1.30e+00 2.69e+04  -1.0 4.03e+08    -  1.52e-02 1.50e-02f  4
  34  1.2052695e+05 1.24e+00 8.12e+04  -1.0 3.21e+08    -  4.73e-02 1.52e-02h  3
  35  1.2621024e+05 1.23e+00 7.42e+04  -1.0 1.95e+09    -  4.18e-03 2.38e-03h  7
  36  1.2774012e+05 1.23e+00 7.67e+04  -1.0 1.47e+09    -  4.45e-02 6.82e-04h  9
  37  1.2818054e+05 1.23e+00 7.80e+04  -1.0 1.74e+09    -  9.41e-03 1.82e-04h 11
  38  1.2829945e+05 1.23e+00 7.81e+04  -1.0 1.83e+09    -  5.36e-02 4.73e-05h 13
  39  1.2835765e+05 1.23e+00 7.81e+04  -1.0 1.86e+09    -  8.62e-03 2.42e-05h 14
iter    objective    inf_pr   inf_du lg(mu)  ||d||  lg(rg) alpha_du alpha_pr  ls
  40  8.9377591e+05 1.12e+01 2.40e+08  -1.0 1.87e+09    -  7.17e-02 7.17e-02s 20
  41  1.8446895e+05 1.10e+01 1.09e+08  -1.0 1.02e+10    -  1.07e-02 1.07e-02s 20
  42r 1.8446895e+05 1.10e+01 9.99e+02   1.0 0.00e+00    -  0.00e+00 0.00e+00R  1
  43r 1.8446895e+05 5.59e+00 9.94e+02   1.0 3.35e+03    -  1.50e-02 2.76e-03f  1
  44r 1.8446895e+05 1.98e+00 9.93e+02   1.0 1.30e+03    -  1.06e-03 4.26e-03f  1
  45r 1.8446895e+05 1.97e+00 9.83e+02   1.0 7.74e+02    -  3.64e-02 5.72e-03f  1
  46r 1.8446895e+05 1.79e+00 9.42e+02   1.0 2.89e+02    -  7.39e-02 4.12e-02f  1
  47r 1.8446895e+05 8.18e-01 9.32e+02   1.0 1.13e+03    -  1.60e-03 1.55e-02f  1
  48  1.8573532e+05 8.18e-01 1.39e+04  -1.0 3.24e+09    -  1.21e-02 2.74e-04h  6
  49  1.8755915e+05 8.18e-01 3.10e+04  -1.0 3.45e+09    -  2.93e-02 2.82e-04h  6
iter    objective    inf_pr   inf_du lg(mu)  ||d||  lg(rg) alpha_du alpha_pr  ls
  50  1.8999670e+05 8.18e-01 4.96e+04  -1.0 3.77e+09    -  2.21e-02 2.70e-04h  6
  51  1.9156860e+05 8.18e-01 5.52e+04  -1.0 4.24e+09    -  2.61e-02 1.30e-04h  7
  52  1.9634968e+05 8.18e-01 1.02e+05  -1.0 4.96e+09    -  1.25e-02 3.20e-04h  6
  53  2.0275143e+05 8.18e-01 1.75e+05  -1.0 5.75e+09    -  4.16e-02 3.31e-04h  6
  54  2.3358596e+05 8.19e-01 1.77e+06  -1.0 7.52e+09    -  7.05e-03 1.12e-03h  5
  55  2.3584150e+05 8.19e-01 1.78e+06  -1.0 7.92e+09    -  2.50e-02 6.94e-05h  8
  56  2.3884093e+05 8.18e-01 1.81e+06  -1.0 1.11e+10    -  6.18e-03 6.87e-05h  9
  57  2.4061091e+05 8.18e-01 1.82e+06  -1.0 1.17e+10    -  2.87e-02 3.81e-05h 10
  58  1.1187329e+07 1.04e+01 8.83e+09  -1.0 1.44e+10    -  4.47e-03 3.63e-02w  1
  59  1.1165582e+07 1.04e+01 3.55e+11  -1.0 7.85e+08  -5.0 3.31e-03 5.18e-03w  1
iter    objective    inf_pr   inf_du lg(mu)  ||d||  lg(rg) alpha_du alpha_pr  ls
  60  1.1165839e+07 1.04e+01 3.55e+11  -1.0 2.86e+08  -5.4 6.62e-03 9.31e-05w  1
  61  2.4261529e+05 8.18e-01 1.83e+06  -1.0 7.45e+08  -5.9 4.47e-03 3.54e-05h 10
  62r 2.4261529e+05 8.18e-01 9.99e+02  -0.1 0.00e+00    -  0.00e+00 2.75e-07R 18
  63r 2.4261529e+05 6.09e-01 9.94e+02  -0.1 1.31e+03    -  3.26e-03 5.79e-03f  1
  64  2.4483989e+05 6.09e-01 1.46e+05  -1.0 2.38e+09    -  3.62e-02 8.59e-04h  4
  65  2.4846811e+05 6.08e-01 2.22e+05  -1.0 2.01e+09    -  7.10e-03 4.53e-04h  6
  66  2.5182527e+05 6.08e-01 2.69e+05  -1.0 2.52e+09    -  1.94e-02 2.88e-04h  6
  67  2.5853619e+05 6.08e-01 4.66e+05  -1.0 3.93e+09    -  4.65e-02 3.86e-04h  6
  68  2.9891339e+05 6.09e-01 8.69e+06  -1.0 7.97e+09    -  8.50e-02 1.13e-03h  5
  69  2.1087384e+05 6.19e-01 2.70e+08  -1.0 3.67e+09    -  2.07e-01 6.18e-03f  2
iter    objective    inf_pr   inf_du lg(mu)  ||d||  lg(rg) alpha_du alpha_pr  ls
  70  2.1139069e+05 6.17e-01 1.73e+08  -1.0 1.96e+09    -  9.65e-03 2.26e-03h  5
  71  2.2502706e+05 6.14e-01 3.77e+08  -1.0 2.18e+09    -  1.31e-02 4.49e-03h  4
  72  2.3416454e+05 6.13e-01 5.03e+08  -1.0 2.20e+09    -  1.72e-02 1.66e-03h  5
  73  2.3951509e+05 6.12e-01 5.44e+08  -1.0 2.27e+09    -  3.45e-02 7.85e-04h  6
  74  9.5835585e+05 1.38e+00 1.25e+11  -1.0 2.72e+09    -  1.11e-01 3.48e-02w  1
  75  9.5829416e+05 1.38e+00 1.25e+11  -1.0 3.90e+08  -6.4 2.39e-01 1.22e-04w  1
  76  2.0407112e+06 3.86e+00 1.42e+11  -1.0 4.78e+09    -  1.99e-04 1.52e-02w  1
  77  2.4197034e+05 6.12e-01 5.52e+08  -1.0 8.48e+09    -  1.11e-01 2.72e-04h  7
  78  2.4229542e+05 6.12e-01 5.52e+08  -1.0 3.09e+09    -  1.98e-02 3.09e-05h 11
  79  2.4245854e+05 6.12e-01 5.52e+08  -1.0 3.09e+09    -  8.88e-02 1.55e-05h 12
iter    objective    inf_pr   inf_du lg(mu)  ||d||  lg(rg) alpha_du alpha_pr  ls
  80  2.9056934e+05 6.11e-01 2.86e+09  -1.0 3.09e+09    -  1.86e-02 3.92e-03h  4
  81  2.9561874e+05 6.10e-01 3.00e+09  -1.0 1.25e+09    -  1.82e-01 8.66e-04h  5
  82  2.9597542e+05 6.10e-01 2.99e+09  -1.0 1.02e+09    -  2.56e-02 4.65e-04h  5
  83  2.9547172e+05 6.09e-01 2.96e+09  -1.0 1.90e+09    -  1.84e-02 3.49e-04f  5
  84  2.9484928e+05 6.09e-01 2.92e+09  -1.0 2.65e+09    -  1.44e-02 2.94e-04f  5
  85  2.9437951e+05 6.08e-01 2.89e+09  -1.0 2.92e+09    -  1.45e-02 2.76e-04f  5
  86  2.9399531e+05 6.07e-01 2.77e+09  -1.0 2.42e+09    -  1.93e-02 5.83e-04f  4
  87  2.9090563e+05 5.87e-01 2.70e+09  -1.0 4.69e+08    -  1.05e-01 6.80e-03w  1
  88  2.9252663e+05 3.28e+00 6.49e+09  -1.0 4.63e+09    -  2.91e-02 5.29e-03w  1
  89  3.5354468e+05 3.53e+00 2.44e+09  -1.0 8.45e+08    -  3.56e-02 1.05e-02w  1
iter    objective    inf_pr   inf_du lg(mu)  ||d||  lg(rg) alpha_du alpha_pr  ls
  90  2.9355413e+05 6.06e-01 2.83e+09  -1.0 5.24e+09    -  1.05e-01 8.50e-04f  3
  91  2.9305946e+05 6.04e-01 5.81e+09  -1.0 5.14e+09    -  3.13e-02 2.66e-03f  2
  92  2.9344940e+05 6.04e-01 5.81e+09  -1.0 1.11e+09    -  3.15e-02 8.76e-05h  8
  93  2.9384504e+05 6.04e-01 5.81e+09  -1.0 1.11e+09    -  5.03e-02 8.68e-05h  8
  94  2.9424614e+05 6.04e-01 5.81e+09  -1.0 1.10e+09    -  5.79e-02 8.60e-05h  8
  95  2.9465182e+05 6.04e-01 5.81e+09  -1.0 1.09e+09    -  9.48e-02 8.54e-05h  8
  96  2.9506192e+05 6.04e-01 5.82e+09  -1.0 1.08e+09    -  9.22e-02 8.49e-05h  8
  97  2.9547559e+05 6.04e-01 5.82e+09  -1.0 1.07e+09    -  8.99e-02 8.47e-05h  8
  98  2.9589249e+05 6.04e-01 5.82e+09  -1.0 1.06e+09    -  9.05e-02 8.46e-05h  8
  99  2.9631244e+05 6.04e-01 5.82e+09  -1.0 1.05e+09    -  9.43e-02 8.45e-05h  8
iter    objective    inf_pr   inf_du lg(mu)  ||d||  lg(rg) alpha_du alpha_pr  ls
 100  3.6023990e+05 4.09e+00 2.38e+10  -1.0 1.03e+09    -  1.03e-01 1.08e-02w  1
 101  4.0349565e+05 4.27e+00 3.18e+10  -1.0 8.18e+08    -  1.14e-01 6.28e-03w  1
 102  2.7296610e+05 4.29e+00 3.03e+12  -1.0 1.22e+10    -  8.15e-03 1.86e-03h  1
 103  2.8772434e+05 4.28e+00 2.96e+12  -1.0 5.06e+09    -  6.65e-03 5.59e-04h  3
 104  2.9235629e+05 4.28e+00 2.95e+12  -1.0 6.34e+09    -  4.45e-03 1.40e-04h  5
 105  2.9284716e+05 4.28e+00 2.95e+12  -1.0 7.27e+09    -  3.61e-03 1.31e-05h  9
 106r 2.9284716e+05 4.28e+00 1.00e+03   0.6 0.00e+00    -  0.00e+00 2.62e-07R 16
 107r 2.9284716e+05 3.08e+00 1.03e+03   0.6 1.18e+04    -  1.27e-02 2.67e-03f  1
 108  2.9289489e+05 3.08e+00 1.91e+03  -1.0 1.13e+08    -  1.28e-01 6.66e-05h  1
 109r 2.9289489e+05 3.08e+00 1.00e+03   0.5 0.00e+00    -  0.00e+00 3.25e-07R  5
iter    objective    inf_pr   inf_du lg(mu)  ||d||  lg(rg) alpha_du alpha_pr  ls
 110r 2.9289489e+05 2.70e+00 9.94e+02   0.5 1.55e+03    -  1.61e-02 4.22e-03f  1
 111r 2.9289489e+05 2.70e+00 9.99e+02   0.4 0.00e+00    -  0.00e+00 4.75e-07R  2
 112r 2.9289489e+05 2.45e+00 9.95e+02   0.4 1.22e+03    -  1.16e-02 3.63e-03f  1
 113r 2.9289489e+05 2.29e+00 9.90e+02   0.4 1.55e+03    -  3.41e-03 5.27e-03f  1
 114  2.9297096e+05 2.29e+00 5.49e+02  -1.0 1.18e+08    -  1.61e-01 9.49e-05h  3
 115  2.9300020e+05 2.29e+00 1.76e+04  -1.0 3.96e+08    -  1.85e-02 1.40e-05h  6
 116  2.9514075e+05 3.70e+00 1.76e+05  -1.0 5.23e+08    -  7.43e-04 7.43e-04s 12
 117  2.9582448e+05 2.29e+00 1.88e+05  -1.0 6.76e+08    -  1.55e-04 1.55e-04s 12
 118  2.9712834e+05 2.29e+00 2.30e+05  -1.0 7.01e+08    -  2.80e-04 2.80e-04s 12
 119  2.9987745e+05 2.29e+00 3.96e+05  -1.0 7.41e+08    -  5.48e-04 5.48e-04s 12
iter    objective    inf_pr   inf_du lg(mu)  ||d||  lg(rg) alpha_du alpha_pr  ls
 120r 2.9987745e+05 2.29e+00 1.00e+03   0.4 0.00e+00    -  0.00e+00 0.00e+00R  1
 121r 2.9987745e+05 2.27e+00 1.02e+03   0.4 2.55e+03    -  1.13e-02 1.04e-03f  1
 122r 2.9987745e+05 4.11e+00 1.01e+03   0.4 4.79e+02    -  8.09e-03 1.05e-02f  1
 123r 2.9987745e+05 1.79e+01 1.77e+03   0.4 2.18e+02    -  1.61e-02 1.41e-02f  1
 124r 2.9987745e+05 2.33e+01 2.42e+03   0.4 1.68e+02    -  2.76e-02 1.12e-02f  1
 125r 2.9987745e+05 1.27e+01 9.86e+02   0.4 1.03e+02    -  3.76e-02 6.54e-02f  1
 126r 2.9987746e+05 4.28e+00 9.66e+02   0.4 2.81e+02    -  1.92e-02 3.37e-02f  1
 127r 2.9987746e+05 1.69e+01 8.90e+02   0.4 1.06e+02    -  1.03e-01 2.69e-03f  1
 128r 2.9987746e+05 2.81e+02 8.75e+02   0.4 1.62e+02    -  1.23e-03 4.99e-02f  1
 129r 2.9987746e+05 1.13e+01 8.17e+02   0.4 7.40e+01    -  4.73e-01 3.44e-03f  1
iter    objective    inf_pr   inf_du lg(mu)  ||d||  lg(rg) alpha_du alpha_pr  ls
 130r 2.9987751e+05 9.71e+00 5.45e+11   0.4 1.32e+02    -  2.30e-01 2.95e-01f  1
 131r 2.9987751e+05 1.51e+01 4.21e+15   0.4 1.52e+00   8.4 9.63e-04 3.97e-04f  3
 132r 2.9987751e+05 9.71e+00 2.42e+16   0.4 5.39e-01  10.2 1.05e-01 3.31e-04h  8
 133r 2.9987751e+05 9.71e+00 6.00e+20   0.4 9.17e-04  11.9 9.90e-01 8.21e-01H  1
Scaling factors are invalid - setting them all to 1.
Scaling factors are invalid - setting them all to 1.
Scaling factors are invalid - setting them all to 1.
Scaling factors are invalid - setting them all to 1.
Scaling factors are invalid - setting them all to 1.
Scaling factors are invalid - setting them all to 1.
Scaling factors are invalid - setting them all to 1.
Scaling factors are invalid - setting them all to 1.
Scaling factors are invalid - setting them all to 1.
Scaling factors are invalid - setting them all to 1.
Scaling factors are invalid - setting them all to 1.
Scaling factors are invalid - setting them all to 1.
Scaling factors are invalid - setting them all to 1.
Scaling factors are invalid - setting them all to 1.
Scaling factors are invalid - setting them all to 1.
Scaling factors are invalid - setting them all to 1.
Scaling factors are invalid - setting them all to 1.
Scaling factors are invalid - setting them all to 1.
Scaling factors are invalid - setting them all to 1.
Scaling factors are invalid - setting them all to 1.
Scaling factors are invalid - setting them all to 1.
Scaling factors are invalid - setting them all to 1.
Scaling factors are invalid - setting them all to 1.
WARNING: Problem in step computation; switching to emergency mode.
 134r 2.9987751e+05 9.71e+00 6.00e+20   0.4 9.17e-04  20.0 0.00e+00 0.00e+00R  1
Scaling factors are invalid - setting them all to 1.
Scaling factors are invalid - setting them all to 1.
Scaling factors are invalid - setting them all to 1.
Scaling factors are invalid - setting them all to 1.
Scaling factors are invalid - setting them all to 1.
Scaling factors are invalid - setting them all to 1.
Scaling factors are invalid - setting them all to 1.
Scaling factors are invalid - setting them all to 1.
Scaling factors are invalid - setting them all to 1.
Scaling factors are invalid - setting them all to 1.
Scaling factors are invalid - setting them all to 1.
Scaling factors are invalid - setting them all to 1.
Scaling factors are invalid - setting them all to 1.
Scaling factors are invalid - setting them all to 1.
WARNING: Problem in step computation; switching to emergency mode.
Restoration phase is called at point that is almost feasible,
  with constraint violation 0.000000e+00. Abort.
Restoration phase in the restoration phase failed.

Number of Iterations....: 134

                                   (scaled)                 (unscaled)
Objective...............:   2.9987750718198007e+05    2.9987750718198007e+05
Dual infeasibility......:   5.9982376373064316e+20    5.9982376373064316e+20
Constraint violation....:   9.7088954096001956e+00    9.7088954096001956e+00
Complementarity.........:   2.3753247125358912e+06    2.3753247125358912e+06
Overall NLP error.......:   2.2918394058802172e+16    5.9982376373064316e+20


Number of objective function evaluations             = 724
Number of objective gradient evaluations             = 114
Number of equality constraint evaluations            = 724
Number of inequality constraint evaluations          = 0
Number of equality constraint Jacobian evaluations   = 143
Number of inequality constraint Jacobian evaluations = 0
Number of Lagrangian Hessian evaluations             = 135
Total CPU secs in IPOPT (w/o function evaluations)   =      0.501
Total CPU secs in NLP function evaluations           =      6.532

EXIT: Restoration Failed!
